(benchmark gametime
:status unknown
:logic QF_AUFBV
:extrafuns ((gtINDEX98  BitVec[32]))
:extrafuns ((gtFIELD__bitsForTID0__gtAGG____anonstruct_D_Work_4  Array[32:32]))
:extrafuns ((gtINDEX99  BitVec[32]))
:extrafuns ((gtAGG__rtDWork  BitVec[32]))
:extrafuns ((gtINDEX96  BitVec[32]))
:extrafuns ((gtINDEX97  BitVec[32]))
:extrafuns ((gtINDEX94  BitVec[32]))
:extrafuns ((gtINDEX95  BitVec[32]))
:extrafuns ((gtINDEX92  BitVec[32]))
:extrafuns ((gtINDEX93  BitVec[32]))
:extrafuns ((gtINDEX91  BitVec[32]))
:extrafuns ((gtINDEX90  BitVec[32]))
:extrafuns ((gtINDEX89  BitVec[32]))
:extrafuns ((gtINDEX88  BitVec[32]))
:extrafuns ((gtINDEX86  BitVec[32]))
:extrafuns ((gtINDEX87  BitVec[32]))
:extrafuns ((gtINDEX84  BitVec[32]))
:extrafuns ((gtINDEX85  BitVec[32]))
:extrafuns ((gtINDEX83  BitVec[32]))
:extrafuns ((gtINDEX81  BitVec[32]))
:extrafuns ((gtINDEX82  BitVec[32]))
:extrafuns ((gtINDEX79  BitVec[32]))
:extrafuns ((gtINDEX80  BitVec[32]))
:extrafuns ((gtINDEX78  BitVec[32]))
:extrafuns ((gtINDEX76  BitVec[32]))
:extrafuns ((gtINDEX77  BitVec[32]))
:extrafuns ((gtINDEX74  BitVec[32]))
:extrafuns ((gtINDEX75  BitVec[32]))
:extrafuns ((gtINDEX72  BitVec[32]))
:extrafuns ((gtINDEX73  BitVec[32]))
:extrafuns ((gtINDEX70  BitVec[32]))
:extrafuns ((gtINDEX71  BitVec[32]))
:extrafuns ((gtINDEX69  BitVec[32]))
:extrafuns ((gtINDEX67  BitVec[32]))
:extrafuns ((gtINDEX68  BitVec[32]))
:extrafuns ((gtINDEX65  BitVec[32]))
:extrafuns ((gtINDEX66  BitVec[32]))
:extrafuns ((gtINDEX63  BitVec[32]))
:extrafuns ((gtINDEX64  BitVec[32]))
:extrafuns ((gtINDEX62  BitVec[32]))
:extrafuns ((gtINDEX60  BitVec[32]))
:extrafuns ((gtINDEX61  BitVec[32]))
:extrafuns ((gtINDEX58  BitVec[32]))
:extrafuns ((gtINDEX59  BitVec[32]))
:extrafuns ((gtINDEX57  BitVec[32]))
:extrafuns ((gtINDEX56  BitVec[32]))
:extrafuns ((gtINDEX54  BitVec[32]))
:extrafuns ((gtINDEX55  BitVec[32]))
:extrafuns ((gtINDEX52  BitVec[32]))
:extrafuns ((gtINDEX53  BitVec[32]))
:extrafuns ((gtINDEX50  BitVec[32]))
:extrafuns ((gtINDEX51  BitVec[32]))
:extrafuns ((gtINDEX49  BitVec[32]))
:extrafuns ((gtINDEX48  BitVec[32]))
:extrafuns ((gtINDEX47  BitVec[32]))
:extrafuns ((gtINDEX45  BitVec[32]))
:extrafuns ((gtINDEX46  BitVec[32]))
:extrafuns ((gtINDEX43  BitVec[32]))
:extrafuns ((gtINDEX44  BitVec[32]))
:extrafuns ((gtINDEX42  BitVec[32]))
:extrafuns ((gtINDEX40  BitVec[32]))
:extrafuns ((gtINDEX41  BitVec[32]))
:extrafuns ((gtINDEX38  BitVec[32]))
:extrafuns ((gtINDEX39  BitVec[32]))
:extrafuns ((gtINDEX37  BitVec[32]))
:extrafuns ((gtINDEX35  BitVec[32]))
:extrafuns ((gtINDEX36  BitVec[32]))
:extrafuns ((gtINDEX33  BitVec[32]))
:extrafuns ((gtINDEX34  BitVec[32]))
:extrafuns ((gtINDEX31  BitVec[32]))
:extrafuns ((gtINDEX32  BitVec[32]))
:extrafuns ((gtINDEX29  BitVec[32]))
:extrafuns ((gtINDEX30  BitVec[32]))
:extrafuns ((gtINDEX28  BitVec[32]))
:extrafuns ((gtINDEX26  BitVec[32]))
:extrafuns ((gtINDEX27  BitVec[32]))
:extrafuns ((gtINDEX24  BitVec[32]))
:extrafuns ((gtINDEX25  BitVec[32]))
:extrafuns ((gtINDEX22  BitVec[32]))
:extrafuns ((gtINDEX23  BitVec[32]))
:extrafuns ((gtINDEX21  BitVec[32]))
:extrafuns ((gtINDEX19  BitVec[32]))
:extrafuns ((gtINDEX20  BitVec[32]))
:extrafuns ((gtINDEX17  BitVec[32]))
:extrafuns ((gtINDEX18  BitVec[32]))
:extrafuns ((gtINDEX16  BitVec[32]))
:extrafuns ((gtINDEX15  BitVec[32]))
:extrafuns ((gtINDEX13  BitVec[32]))
:extrafuns ((gtINDEX14  BitVec[32]))
:extrafuns ((gtINDEX11  BitVec[32]))
:extrafuns ((gtINDEX12  BitVec[32]))
:extrafuns ((gtINDEX9  BitVec[32]))
:extrafuns ((gtINDEX10  BitVec[32]))
:extrafuns ((gtINDEX8  BitVec[32]))
:extrafuns ((gtINDEX7  BitVec[32]))
:extrafuns ((gtINDEX6  BitVec[32]))
:extrafuns ((gtINDEX5  BitVec[32]))
:extrafuns ((gtINDEX4  BitVec[32]))
:extrafuns ((gtINDEX3  BitVec[32]))
:extrafuns ((gtINDEX2  BitVec[32]))
:extrafuns ((gtINDEX1  BitVec[32]))
:extrafuns ((gtINDEX0  BitVec[32]))
:extrafuns ((gtFIELD__is_Eng__gtAGG____anonstruct_bitsForTID0_5_1_  Array[32:1]))
:extrafuns ((gtFIELD__is_Eng__gtAGG____anonstruct_bitsForTID0_5_2_  Array[32:1]))
:extrafuns ((sf_previousEvent_1_  BitVec[32]))
:extrafuns ((sfEvent__2_  BitVec[32]))
:extrafuns ((gtFIELD__is_Eng__gtAGG____anonstruct_bitsForTID0_5  Array[32:1]))
:extrafuns ((gtFIELD__sent__gtAGG____anonstruct_D_Work_4_1_  Array[32:32]))
:extrafuns ((gtFIELD__sent__gtAGG____anonstruct_D_Work_4_2_  Array[32:32]))
:extrafuns ((gtFIELD__is_active_Eng__gtAGG____anonstruct_bitsForTID0_5  Array[32:1]))
:extrafuns ((sfEvent__1_  BitVec[32]))
:extrafuns ((gtFIELD__is_PURI__gtAGG____anonstruct_bitsForTID0_5  Array[32:2]))
:extrafuns ((gtFIELD__is_active_PURI__gtAGG____anonstruct_bitsForTID0_5  Array[32:1]))
:extrafuns ((gtFIELD__is_PVRP__gtAGG____anonstruct_bitsForTID0_5  Array[32:2]))
:extrafuns ((gtFIELD__is_active_PVRP__gtAGG____anonstruct_bitsForTID0_5  Array[32:1]))
:extrafuns ((gtFIELD__is_PPVARP__gtAGG____anonstruct_bitsForTID0_5  Array[32:2]))
:extrafuns ((gtFIELD__is_active_PPVARP__gtAGG____anonstruct_bitsForTID0_5  Array[32:1]))
:extrafuns ((gtFIELD__is_PLRI__gtAGG____anonstruct_bitsForTID0_5  Array[32:2]))
:extrafuns ((gtFIELD__is_active_PLRI__gtAGG____anonstruct_bitsForTID0_5  Array[32:1]))
:extrafuns ((gtFIELD__is_PAVI__gtAGG____anonstruct_bitsForTID0_5  Array[32:3]))
:extrafuns ((gtFIELD__is_active_PAVI__gtAGG____anonstruct_bitsForTID0_5  Array[32:1]))
:extrafuns ((sfEvent_  BitVec[32]))
:extrafuns ((gtFIELD__sent__gtAGG____anonstruct_D_Work_4  Array[32:32]))
:extrafuns ((gtFIELD__temporalCounter_i5__gtAGG____anonstruct_D_Work_4  Array[32:32]))
:extrafuns ((gtFIELD__temporalCounter_i4__gtAGG____anonstruct_D_Work_4  Array[32:32]))
:extrafuns ((gtFIELD__temporalCounter_i4__gtAGG____anonstruct_D_Work_4_1_  Array[32:32]))
:extrafuns ((gtFIELD__temporalCounter_i3__gtAGG____anonstruct_D_Work_4  Array[32:32]))
:extrafuns ((gtFIELD__temporalCounter_i2__gtAGG____anonstruct_D_Work_4  Array[32:32]))
:extrafuns ((gtFIELD__temporalCounter_i1__gtAGG____anonstruct_D_Work_4  Array[32:32]))
:extrafuns ((gtFIELD__temporalCounter_i1__gtAGG____anonstruct_D_Work_4_1_  Array[32:32]))
:extrapreds ((constraint178 ))
:extrapreds ((constraint177 ))
:extrapreds ((constraint176 ))
:extrapreds ((constraint175 ))
:extrapreds ((constraint174 ))
:extrapreds ((constraint173 ))
:extrapreds ((constraint172 ))
:extrapreds ((constraint171 ))
:extrapreds ((constraint170 ))
:extrapreds ((constraint169 ))
:extrapreds ((constraint168 ))
:extrapreds ((constraint167 ))
:extrapreds ((constraint166 ))
:extrapreds ((constraint165 ))
:extrapreds ((constraint164 ))
:extrapreds ((constraint163 ))
:extrapreds ((constraint162 ))
:extrapreds ((constraint161 ))
:extrapreds ((constraint160 ))
:extrapreds ((constraint159 ))
:extrapreds ((constraint158 ))
:extrapreds ((constraint157 ))
:extrapreds ((constraint156 ))
:extrapreds ((constraint155 ))
:extrapreds ((constraint154 ))
:extrapreds ((constraint153 ))
:extrapreds ((constraint152 ))
:extrapreds ((constraint151 ))
:extrapreds ((constraint150 ))
:extrapreds ((constraint149 ))
:extrapreds ((constraint148 ))
:extrapreds ((constraint147 ))
:extrapreds ((constraint146 ))
:extrapreds ((constraint145 ))
:extrapreds ((constraint144 ))
:extrapreds ((constraint143 ))
:extrapreds ((constraint142 ))
:extrapreds ((constraint141 ))
:extrapreds ((constraint140 ))
:extrapreds ((constraint139 ))
:extrapreds ((constraint138 ))
:extrapreds ((constraint137 ))
:extrapreds ((constraint136 ))
:extrapreds ((constraint135 ))
:extrapreds ((constraint134 ))
:extrapreds ((constraint133 ))
:extrapreds ((constraint132 ))
:extrapreds ((constraint131 ))
:extrapreds ((constraint130 ))
:extrapreds ((constraint129 ))
:extrapreds ((constraint128 ))
:extrapreds ((constraint127 ))
:extrapreds ((constraint126 ))
:extrapreds ((constraint125 ))
:extrapreds ((constraint124 ))
:extrapreds ((constraint123 ))
:extrapreds ((constraint122 ))
:extrapreds ((constraint121 ))
:extrapreds ((constraint120 ))
:extrapreds ((constraint119 ))
:extrapreds ((constraint118 ))
:extrapreds ((constraint117 ))
:extrapreds ((constraint116 ))
:extrapreds ((constraint115 ))
:extrapreds ((constraint114 ))
:extrapreds ((constraint113 ))
:extrapreds ((constraint112 ))
:extrapreds ((constraint111 ))
:extrapreds ((constraint110 ))
:extrapreds ((constraint109 ))
:extrapreds ((constraint108 ))
:extrapreds ((constraint107 ))
:extrapreds ((constraint106 ))
:extrapreds ((constraint105 ))
:extrapreds ((constraint104 ))
:extrapreds ((constraint103 ))
:extrapreds ((constraint102 ))
:extrapreds ((constraint101 ))
:extrapreds ((constraint100 ))
:extrapreds ((constraint99 ))
:extrapreds ((constraint98 ))
:extrapreds ((constraint97 ))
:extrapreds ((constraint96 ))
:extrapreds ((constraint95 ))
:extrapreds ((constraint94 ))
:extrapreds ((constraint93 ))
:extrapreds ((constraint92 ))
:extrapreds ((constraint91 ))
:extrapreds ((constraint90 ))
:extrapreds ((constraint89 ))
:extrapreds ((constraint88 ))
:extrapreds ((constraint87 ))
:extrapreds ((constraint86 ))
:extrapreds ((constraint85 ))
:extrapreds ((constraint84 ))
:extrapreds ((constraint83 ))
:extrapreds ((constraint82 ))
:extrapreds ((constraint81 ))
:extrapreds ((constraint80 ))
:extrapreds ((constraint79 ))
:extrapreds ((constraint78 ))
:extrapreds ((constraint77 ))
:extrapreds ((constraint76 ))
:extrapreds ((constraint75 ))
:extrapreds ((constraint74 ))
:extrapreds ((constraint73 ))
:extrapreds ((constraint72 ))
:extrapreds ((constraint71 ))
:extrapreds ((constraint70 ))
:extrapreds ((constraint69 ))
:extrapreds ((constraint68 ))
:extrapreds ((constraint67 ))
:extrapreds ((constraint66 ))
:extrapreds ((constraint65 ))
:extrapreds ((constraint64 ))
:extrapreds ((constraint63 ))
:extrapreds ((constraint62 ))
:extrapreds ((constraint61 ))
:extrapreds ((constraint60 ))
:extrapreds ((constraint59 ))
:extrapreds ((constraint58 ))
:extrapreds ((constraint57 ))
:extrapreds ((constraint56 ))
:extrapreds ((constraint55 ))
:extrapreds ((constraint54 ))
:extrapreds ((constraint53 ))
:extrapreds ((constraint52 ))
:extrapreds ((constraint51 ))
:extrapreds ((constraint50 ))
:extrapreds ((constraint49 ))
:extrapreds ((constraint48 ))
:extrapreds ((constraint47 ))
:extrapreds ((constraint46 ))
:extrapreds ((constraint45 ))
:extrapreds ((constraint44 ))
:extrapreds ((constraint43 ))
:extrapreds ((constraint42 ))
:extrapreds ((constraint41 ))
:extrapreds ((constraint40 ))
:extrapreds ((constraint39 ))
:extrapreds ((constraint38 ))
:extrapreds ((constraint37 ))
:extrapreds ((constraint36 ))
:extrapreds ((constraint35 ))
:extrapreds ((constraint34 ))
:extrapreds ((constraint33 ))
:extrapreds ((constraint32 ))
:extrapreds ((constraint31 ))
:extrapreds ((constraint30 ))
:extrapreds ((constraint29 ))
:extrapreds ((constraint28 ))
:extrapreds ((constraint27 ))
:extrapreds ((constraint26 ))
:extrapreds ((constraint25 ))
:extrapreds ((constraint24 ))
:extrapreds ((constraint23 ))
:extrapreds ((constraint22 ))
:extrapreds ((constraint21 ))
:extrapreds ((constraint20 ))
:extrapreds ((constraint19 ))
:extrapreds ((constraint18 ))
:extrapreds ((constraint17 ))
:extrapreds ((constraint16 ))
:extrapreds ((constraint15 ))
:extrapreds ((constraint14 ))
:extrapreds ((constraint13 ))
:extrapreds ((constraint12 ))
:extrapreds ((constraint11 ))
:extrapreds ((constraint10 ))
:extrapreds ((constraint9 ))
:extrapreds ((constraint8 ))
:extrapreds ((constraint7 ))
:extrapreds ((constraint6 ))
:extrapreds ((constraint5 ))
:extrapreds ((constraint4 ))
:extrapreds ((constraint3 ))
:extrapreds ((constraint2 ))
:extrapreds ((constraint1 ))
:extrapreds ((constraint0 ))
:formula
(flet ($x877 (and constraint0 constraint1 constraint2 constraint3 constraint4 constraint5 constraint6 constraint7 constraint8 constraint9 constraint10 constraint11 constraint12 constraint13 constraint14 constraint15 constraint16 constraint17 constraint18 constraint19 constraint20 constraint21 constraint22 constraint23 constraint24 constraint25 constraint26 constraint27 constraint28 constraint29 constraint30 constraint31 constraint32 constraint33 constraint34 constraint35 constraint36 constraint37 constraint38 constraint39 constraint40 constraint41 constraint42 constraint43 constraint44 constraint45 constraint46 constraint47 constraint48 constraint49 constraint50 constraint51 constraint52 constraint53 constraint54 constraint55 constraint56 constraint57 constraint58 constraint59 constraint60 constraint61 constraint62 constraint63 constraint64 constraint65 constraint66 constraint67 constraint68 constraint69 constraint70 constraint71 constraint72 constraint73 constraint74 constraint75 constraint76 constraint77 constraint78 constraint79 constraint80 constraint81 constraint82 constraint83 constraint84 constraint85 constraint86 constraint87 constraint88 constraint89 constraint90 constraint91 constraint92 constraint93 constraint94 constraint95 constraint96 constraint97 constraint98 constraint99 constraint100 constraint101 constraint102 constraint103 constraint104 constraint105 constraint106 constraint107 constraint108 constraint109 constraint110 constraint111 constraint112 constraint113 constraint114 constraint115 constraint116 constraint117 constraint118 constraint119 constraint120 constraint121 constraint122 constraint123 constraint124 constraint125 constraint126 constraint127 constraint128 constraint129 constraint130 constraint131 constraint132 constraint133 constraint134 constraint135 constraint136 constraint137 constraint138 constraint139 constraint140 constraint141 constraint142 constraint143 constraint144 constraint145 constraint146 constraint147 constraint148 constraint149 constraint150 constraint151 constraint152 constraint153 constraint154 constraint155 constraint156 constraint157 constraint158 constraint159 constraint160 constraint161 constraint162 constraint163 constraint164 constraint165 constraint166 constraint167 constraint168 constraint169 constraint170 constraint171 constraint172 constraint173 constraint174 constraint175 constraint176 constraint177 constraint178))
(flet ($x517 (= gtINDEX99 (select gtFIELD__bitsForTID0__gtAGG____anonstruct_D_Work_4 gtINDEX98)))
(flet ($x513 (= gtINDEX97 (select gtFIELD__bitsForTID0__gtAGG____anonstruct_D_Work_4 gtINDEX96)))
(flet ($x509 (= gtINDEX95 (select gtFIELD__bitsForTID0__gtAGG____anonstruct_D_Work_4 gtINDEX94)))
(flet ($x505 (= gtINDEX93 (select gtFIELD__bitsForTID0__gtAGG____anonstruct_D_Work_4 gtINDEX92)))
(flet ($x497 (= gtINDEX87 (select gtFIELD__bitsForTID0__gtAGG____anonstruct_D_Work_4 gtINDEX86)))
(flet ($x493 (= gtINDEX85 (select gtFIELD__bitsForTID0__gtAGG____anonstruct_D_Work_4 gtINDEX84)))
(flet ($x488 (= gtINDEX82 (select gtFIELD__bitsForTID0__gtAGG____anonstruct_D_Work_4 gtINDEX81)))
(flet ($x484 (= gtINDEX80 (select gtFIELD__bitsForTID0__gtAGG____anonstruct_D_Work_4 gtINDEX79)))
(flet ($x479 (= gtINDEX77 (select gtFIELD__bitsForTID0__gtAGG____anonstruct_D_Work_4 gtINDEX76)))
(flet ($x475 (= gtINDEX75 (select gtFIELD__bitsForTID0__gtAGG____anonstruct_D_Work_4 gtINDEX74)))
(flet ($x471 (= gtINDEX73 (select gtFIELD__bitsForTID0__gtAGG____anonstruct_D_Work_4 gtINDEX72)))
(flet ($x467 (= gtINDEX71 (select gtFIELD__bitsForTID0__gtAGG____anonstruct_D_Work_4 gtINDEX70)))
(flet ($x462 (= gtINDEX68 (select gtFIELD__bitsForTID0__gtAGG____anonstruct_D_Work_4 gtINDEX67)))
(flet ($x458 (= gtINDEX66 (select gtFIELD__bitsForTID0__gtAGG____anonstruct_D_Work_4 gtINDEX65)))
(flet ($x454 (= gtINDEX64 (select gtFIELD__bitsForTID0__gtAGG____anonstruct_D_Work_4 gtINDEX63)))
(flet ($x449 (= gtINDEX61 (select gtFIELD__bitsForTID0__gtAGG____anonstruct_D_Work_4 gtINDEX60)))
(flet ($x445 (= gtINDEX59 (select gtFIELD__bitsForTID0__gtAGG____anonstruct_D_Work_4 gtINDEX58)))
(flet ($x439 (= gtINDEX55 (select gtFIELD__bitsForTID0__gtAGG____anonstruct_D_Work_4 gtINDEX54)))
(flet ($x435 (= gtINDEX53 (select gtFIELD__bitsForTID0__gtAGG____anonstruct_D_Work_4 gtINDEX52)))
(flet ($x431 (= gtINDEX51 (select gtFIELD__bitsForTID0__gtAGG____anonstruct_D_Work_4 gtINDEX50)))
(flet ($x424 (= gtINDEX46 (select gtFIELD__bitsForTID0__gtAGG____anonstruct_D_Work_4 gtINDEX45)))
(flet ($x420 (= gtINDEX44 (select gtFIELD__bitsForTID0__gtAGG____anonstruct_D_Work_4 gtINDEX43)))
(flet ($x415 (= gtINDEX41 (select gtFIELD__bitsForTID0__gtAGG____anonstruct_D_Work_4 gtINDEX40)))
(flet ($x411 (= gtINDEX39 (select gtFIELD__bitsForTID0__gtAGG____anonstruct_D_Work_4 gtINDEX38)))
(flet ($x406 (= gtINDEX36 (select gtFIELD__bitsForTID0__gtAGG____anonstruct_D_Work_4 gtINDEX35)))
(flet ($x402 (= gtINDEX34 (select gtFIELD__bitsForTID0__gtAGG____anonstruct_D_Work_4 gtINDEX33)))
(flet ($x398 (= gtINDEX32 (select gtFIELD__bitsForTID0__gtAGG____anonstruct_D_Work_4 gtINDEX31)))
(flet ($x394 (= gtINDEX30 (select gtFIELD__bitsForTID0__gtAGG____anonstruct_D_Work_4 gtINDEX29)))
(flet ($x389 (= gtINDEX27 (select gtFIELD__bitsForTID0__gtAGG____anonstruct_D_Work_4 gtINDEX26)))
(flet ($x385 (= gtINDEX25 (select gtFIELD__bitsForTID0__gtAGG____anonstruct_D_Work_4 gtINDEX24)))
(flet ($x381 (= gtINDEX23 (select gtFIELD__bitsForTID0__gtAGG____anonstruct_D_Work_4 gtINDEX22)))
(flet ($x376 (= gtINDEX20 (select gtFIELD__bitsForTID0__gtAGG____anonstruct_D_Work_4 gtINDEX19)))
(flet ($x372 (= gtINDEX18 (select gtFIELD__bitsForTID0__gtAGG____anonstruct_D_Work_4 gtINDEX17)))
(flet ($x366 (= gtINDEX14 (select gtFIELD__bitsForTID0__gtAGG____anonstruct_D_Work_4 gtINDEX13)))
(flet ($x362 (= gtINDEX12 (select gtFIELD__bitsForTID0__gtAGG____anonstruct_D_Work_4 gtINDEX11)))
(flet ($x358 (= gtINDEX10 (select gtFIELD__bitsForTID0__gtAGG____anonstruct_D_Work_4 gtINDEX9)))
(let (?x333 (extract[0:0] bv1[32]))
(let (?x343 (store gtFIELD__is_Eng__gtAGG____anonstruct_bitsForTID0_5_1_ gtINDEX99 ?x333))
(flet ($x675 (iff constraint78 (= gtFIELD__is_Eng__gtAGG____anonstruct_bitsForTID0_5_2_ ?x343)))
(let (?x339 (select gtFIELD__is_Eng__gtAGG____anonstruct_bitsForTID0_5_1_ gtINDEX97))
(let (?x334 (store gtFIELD__is_Eng__gtAGG____anonstruct_bitsForTID0_5 gtINDEX95 ?x333))
(flet ($x669 (iff constraint75 (= gtFIELD__is_Eng__gtAGG____anonstruct_bitsForTID0_5_1_ ?x334)))
(let (?x330 (zero_extend[31] (select gtFIELD__is_Eng__gtAGG____anonstruct_bitsForTID0_5 gtINDEX93)))
(let (?x326 (store gtFIELD__sent__gtAGG____anonstruct_D_Work_4_1_ gtINDEX91 bv0[32]))
(flet ($x665 (iff constraint73 (= gtFIELD__sent__gtAGG____anonstruct_D_Work_4_2_ ?x326)))
(let (?x200 (bvmul bv4294967295[32] bv1[32]))
(flet ($x324 (= (select gtFIELD__sent__gtAGG____anonstruct_D_Work_4_1_ gtINDEX90) ?x200))
(flet ($x320 (= (select gtFIELD__sent__gtAGG____anonstruct_D_Work_4_1_ gtINDEX89) bv9[32]))
(flet ($x316 (= (select gtFIELD__sent__gtAGG____anonstruct_D_Work_4_1_ gtINDEX88) bv4[32]))
(let (?x312 (zero_extend[31] (select gtFIELD__is_Eng__gtAGG____anonstruct_bitsForTID0_5 gtINDEX87)))
(let (?x306 (select gtFIELD__is_active_Eng__gtAGG____anonstruct_bitsForTID0_5 gtINDEX85))
(flet ($x303 (= (select gtFIELD__sent__gtAGG____anonstruct_D_Work_4_1_ gtINDEX83) bv0[32]))
(let (?x298 (select gtFIELD__is_PURI__gtAGG____anonstruct_bitsForTID0_5 gtINDEX82))
(let (?x293 (select gtFIELD__is_active_PURI__gtAGG____anonstruct_bitsForTID0_5 gtINDEX80))
(flet ($x290 (= (select gtFIELD__sent__gtAGG____anonstruct_D_Work_4_1_ gtINDEX78) bv0[32]))
(let (?x285 (select gtFIELD__is_PVRP__gtAGG____anonstruct_bitsForTID0_5 gtINDEX77))
(let (?x280 (select gtFIELD__is_PVRP__gtAGG____anonstruct_bitsForTID0_5 gtINDEX75))
(let (?x275 (select gtFIELD__is_PVRP__gtAGG____anonstruct_bitsForTID0_5 gtINDEX73))
(let (?x270 (select gtFIELD__is_active_PVRP__gtAGG____anonstruct_bitsForTID0_5 gtINDEX71))
(flet ($x267 (= (select gtFIELD__sent__gtAGG____anonstruct_D_Work_4_1_ gtINDEX69) bv0[32]))
(let (?x262 (select gtFIELD__is_PPVARP__gtAGG____anonstruct_bitsForTID0_5 gtINDEX68))
(let (?x257 (select gtFIELD__is_PPVARP__gtAGG____anonstruct_bitsForTID0_5 gtINDEX66))
(let (?x252 (select gtFIELD__is_active_PPVARP__gtAGG____anonstruct_bitsForTID0_5 gtINDEX64))
(flet ($x245 (= (select gtFIELD__sent__gtAGG____anonstruct_D_Work_4_1_ gtINDEX62) bv0[32]))
(let (?x240 (select gtFIELD__is_PLRI__gtAGG____anonstruct_bitsForTID0_5 gtINDEX61))
(let (?x235 (select gtFIELD__is_active_PLRI__gtAGG____anonstruct_bitsForTID0_5 gtINDEX59))
(flet ($x230 (= (select gtFIELD__sent__gtAGG____anonstruct_D_Work_4_1_ gtINDEX57) bv0[32]))
(flet ($x226 (= (select gtFIELD__sent__gtAGG____anonstruct_D_Work_4_1_ gtINDEX56) bv0[32]))
(let (?x221 (select gtFIELD__is_PAVI__gtAGG____anonstruct_bitsForTID0_5 gtINDEX55))
(let (?x216 (select gtFIELD__is_PAVI__gtAGG____anonstruct_bitsForTID0_5 gtINDEX53))
(let (?x211 (select gtFIELD__is_active_PAVI__gtAGG____anonstruct_bitsForTID0_5 gtINDEX51))
(flet ($x202 (= gtFIELD__sent__gtAGG____anonstruct_D_Work_4_1_ (store gtFIELD__sent__gtAGG____anonstruct_D_Work_4 gtINDEX49 ?x200)))
(flet ($x198 (= (select gtFIELD__sent__gtAGG____anonstruct_D_Work_4 gtINDEX48) bv9[32]))
(flet ($x193 (= (select gtFIELD__sent__gtAGG____anonstruct_D_Work_4 gtINDEX47) bv4[32]))
(let (?x189 (zero_extend[31] (select gtFIELD__is_Eng__gtAGG____anonstruct_bitsForTID0_5 gtINDEX46)))
(let (?x183 (select gtFIELD__is_active_Eng__gtAGG____anonstruct_bitsForTID0_5 gtINDEX44))
(flet ($x180 (= (select gtFIELD__sent__gtAGG____anonstruct_D_Work_4 gtINDEX42) bv0[32]))
(let (?x175 (select gtFIELD__is_PURI__gtAGG____anonstruct_bitsForTID0_5 gtINDEX41))
(let (?x170 (select gtFIELD__is_active_PURI__gtAGG____anonstruct_bitsForTID0_5 gtINDEX39))
(flet ($x167 (= (select gtFIELD__sent__gtAGG____anonstruct_D_Work_4 gtINDEX37) bv0[32]))
(let (?x162 (select gtFIELD__is_PVRP__gtAGG____anonstruct_bitsForTID0_5 gtINDEX36))
(let (?x157 (select gtFIELD__is_PVRP__gtAGG____anonstruct_bitsForTID0_5 gtINDEX34))
(let (?x152 (select gtFIELD__is_PVRP__gtAGG____anonstruct_bitsForTID0_5 gtINDEX32))
(let (?x147 (select gtFIELD__is_active_PVRP__gtAGG____anonstruct_bitsForTID0_5 gtINDEX30))
(flet ($x144 (= (select gtFIELD__sent__gtAGG____anonstruct_D_Work_4 gtINDEX28) bv0[32]))
(let (?x139 (select gtFIELD__is_PPVARP__gtAGG____anonstruct_bitsForTID0_5 gtINDEX27))
(let (?x134 (select gtFIELD__is_PPVARP__gtAGG____anonstruct_bitsForTID0_5 gtINDEX25))
(let (?x129 (select gtFIELD__is_active_PPVARP__gtAGG____anonstruct_bitsForTID0_5 gtINDEX23))
(flet ($x120 (= (select gtFIELD__sent__gtAGG____anonstruct_D_Work_4 gtINDEX21) bv0[32]))
(let (?x115 (select gtFIELD__is_PLRI__gtAGG____anonstruct_bitsForTID0_5 gtINDEX20))
(let (?x110 (select gtFIELD__is_active_PLRI__gtAGG____anonstruct_bitsForTID0_5 gtINDEX18))
(flet ($x104 (= (select gtFIELD__sent__gtAGG____anonstruct_D_Work_4 gtINDEX16) bv0[32]))
(flet ($x100 (= (select gtFIELD__sent__gtAGG____anonstruct_D_Work_4 gtINDEX15) bv0[32]))
(let (?x94 (select gtFIELD__is_PAVI__gtAGG____anonstruct_bitsForTID0_5 gtINDEX14))
(let (?x89 (select gtFIELD__is_PAVI__gtAGG____anonstruct_bitsForTID0_5 gtINDEX12))
(let (?x83 (select gtFIELD__is_active_PAVI__gtAGG____anonstruct_bitsForTID0_5 gtINDEX10))
(let (?x79 (select gtFIELD__temporalCounter_i5__gtAGG____anonstruct_D_Work_4 gtINDEX8))
(let (?x74 (select gtFIELD__temporalCounter_i4__gtAGG____anonstruct_D_Work_4 gtINDEX6))
(let (?x76 (store gtFIELD__temporalCounter_i4__gtAGG____anonstruct_D_Work_4 gtINDEX7 (bvadd ?x74 bv1[32])))
(flet ($x531 (iff constraint6 (= gtFIELD__temporalCounter_i4__gtAGG____anonstruct_D_Work_4_1_ ?x76)))
(let (?x70 (select gtFIELD__temporalCounter_i4__gtAGG____anonstruct_D_Work_4 gtINDEX5))
(let (?x66 (select gtFIELD__temporalCounter_i3__gtAGG____anonstruct_D_Work_4 gtINDEX4))
(let (?x62 (select gtFIELD__temporalCounter_i2__gtAGG____anonstruct_D_Work_4 gtINDEX3))
(let (?x56 (select gtFIELD__temporalCounter_i1__gtAGG____anonstruct_D_Work_4 gtINDEX1))
(let (?x59 (store gtFIELD__temporalCounter_i1__gtAGG____anonstruct_D_Work_4 gtINDEX2 (bvadd ?x56 bv1[32])))
(flet ($x523 (iff constraint2 (= gtFIELD__temporalCounter_i1__gtAGG____anonstruct_D_Work_4_1_ ?x59)))
(let (?x51 (select gtFIELD__temporalCounter_i1__gtAGG____anonstruct_D_Work_4 gtINDEX0))
(flet ($x876 (and (iff constraint0 (= sfEvent_ bv8[32])) (iff constraint1 (bvult ?x51 bv4294967295[32])) $x523 (iff constraint3 (not (bvult ?x62 bv4294967295[32]))) (iff constraint4 (not (bvult ?x66 bv4294967295[32]))) (iff constraint5 (bvult ?x70 bv4294967295[32])) $x531 (iff constraint7 (not (bvult ?x79 bv4294967295[32]))) (iff constraint8 (not (= (zero_extend[31] ?x83) bv0[32]))) (iff constraint9 (not (= (zero_extend[29] ?x89) bv1[32]))) (iff constraint10 (= (zero_extend[29] ?x94) bv2[32])) (iff constraint11 (not $x100)) (iff constraint12 (not $x104)) (iff constraint13 (not (= sfEvent_ bv5[32]))) (iff constraint14 (not (= (zero_extend[31] ?x110) bv0[32]))) (iff constraint15 (= (zero_extend[30] ?x115) bv1[32])) (iff constraint16 (not $x120)) (iff constraint17 (not (= sfEvent_ bv4[32]))) (iff constraint18 (not (= sfEvent_ bv5[32]))) (iff constraint19 (not (= sfEvent_ bv3[32]))) (iff constraint20 (not (= (zero_extend[31] ?x129) bv0[32]))) (iff constraint21 (not (= (zero_extend[30] ?x134) bv1[32]))) (iff constraint22 (= (zero_extend[30] ?x139) bv2[32])) (iff constraint23 (not $x144)) (iff constraint24 (not (= (zero_extend[31] ?x147) bv0[32]))) (iff constraint25 (not (= (zero_extend[30] ?x152) bv1[32]))) (iff constraint26 (not (= (zero_extend[30] ?x157) bv2[32]))) (iff constraint27 (= (zero_extend[30] ?x162) bv3[32])) (iff constraint28 (not $x167)) (iff constraint29 (not (= (zero_extend[31] ?x170) bv0[32]))) (iff constraint30 (= (zero_extend[30] ?x175) bv1[32])) (iff constraint31 (not (= sfEvent_ bv4[32]))) (iff constraint32 (not (= sfEvent_ bv5[32]))) (iff constraint33 (not $x180)) (iff constraint34 (not (= (zero_extend[31] ?x183) bv0[32]))) (iff constraint35 (= ?x189 bv1[32])) (iff constraint36 (not $x193)) (iff constraint37 $x198) (iff constraint38 $x202) (iff constraint39 (= sf_previousEvent_1_ sfEvent_)) (iff constraint40 (= sfEvent__1_ bv6[32])) (iff constraint41 (not (= sfEvent__1_ bv8[32]))) (iff constraint42 (not (= (zero_extend[31] ?x211) bv0[32]))) (iff constraint43 (not (= (zero_extend[29] ?x216) bv1[32]))) (iff constraint44 (= (zero_extend[29] ?x221) bv2[32])) (iff constraint45 (not $x226)) (iff constraint46 (not $x230)) (iff constraint47 (not (= sfEvent__1_ bv5[32]))) (iff constraint48 (not (= (zero_extend[31] ?x235) bv0[32]))) (iff constraint49 (= (zero_extend[30] ?x240) bv1[32])) (iff constraint50 (not $x245)) (iff constraint51 (not (= sfEvent__1_ bv4[32]))) (iff constraint52 (not (= sfEvent__1_ bv5[32]))) (iff constraint53 (not (= sfEvent__1_ bv3[32]))) (iff constraint54 (not (= (zero_extend[31] ?x252) bv0[32]))) (iff constraint55 (not (= (zero_extend[30] ?x257) bv1[32]))) (iff constraint56 (= (zero_extend[30] ?x262) bv2[32])) (iff constraint57 (not $x267)) (iff constraint58 (not (= (zero_extend[31] ?x270) bv0[32]))) (iff constraint59 (not (= (zero_extend[30] ?x275) bv1[32]))) (iff constraint60 (not (= (zero_extend[30] ?x280) bv2[32]))) (iff constraint61 (= (zero_extend[30] ?x285) bv3[32])) (iff constraint62 (not $x290)) (iff constraint63 (not (= (zero_extend[31] ?x293) bv0[32]))) (iff constraint64 (= (zero_extend[30] ?x298) bv1[32])) (iff constraint65 (not (= sfEvent__1_ bv4[32]))) (iff constraint66 (not (= sfEvent__1_ bv5[32]))) (iff constraint67 (not $x303)) (iff constraint68 (not (= (zero_extend[31] ?x306) bv0[32]))) (iff constraint69 (= ?x312 bv1[32])) (iff constraint70 (not $x316)) (iff constraint71 (not $x320)) (iff constraint72 $x324) $x665 (iff constraint74 (= ?x330 bv1[32])) $x669 (iff constraint76 (= sfEvent__2_ sf_previousEvent_1_)) (iff constraint77 (= (zero_extend[31] ?x339) bv1[32])) $x675 (iff constraint79 (= gtINDEX0 gtAGG__rtDWork)) (iff constraint80 (= gtINDEX1 gtAGG__rtDWork)) (iff constraint81 (= gtINDEX2 gtAGG__rtDWork)) (iff constraint82 (= gtINDEX3 gtAGG__rtDWork)) (iff constraint83 (= gtINDEX4 gtAGG__rtDWork)) (iff constraint84 (= gtINDEX5 gtAGG__rtDWork)) (iff constraint85 (= gtINDEX6 gtAGG__rtDWork)) (iff constraint86 (= gtINDEX7 gtAGG__rtDWork)) (iff constraint87 (= gtINDEX8 gtAGG__rtDWork)) (iff constraint88 (= gtINDEX9 gtAGG__rtDWork)) (iff constraint89 $x358) (iff constraint90 (= gtINDEX11 gtAGG__rtDWork)) (iff constraint91 $x362) (iff constraint92 (= gtINDEX13 gtAGG__rtDWork)) (iff constraint93 $x366) (iff constraint94 (= gtINDEX15 gtAGG__rtDWork)) (iff constraint95 (= gtINDEX16 gtAGG__rtDWork)) (iff constraint96 (= gtINDEX17 gtAGG__rtDWork)) (iff constraint97 $x372) (iff constraint98 (= gtINDEX19 gtAGG__rtDWork)) (iff constraint99 $x376) (iff constraint100 (= gtINDEX21 gtAGG__rtDWork)) (iff constraint101 (= gtINDEX22 gtAGG__rtDWork)) (iff constraint102 $x381) (iff constraint103 (= gtINDEX24 gtAGG__rtDWork)) (iff constraint104 $x385) (iff constraint105 (= gtINDEX26 gtAGG__rtDWork)) (iff constraint106 $x389) (iff constraint107 (= gtINDEX28 gtAGG__rtDWork)) (iff constraint108 (= gtINDEX29 gtAGG__rtDWork)) (iff constraint109 $x394) (iff constraint110 (= gtINDEX31 gtAGG__rtDWork)) (iff constraint111 $x398) (iff constraint112 (= gtINDEX33 gtAGG__rtDWork)) (iff constraint113 $x402) (iff constraint114 (= gtINDEX35 gtAGG__rtDWork)) (iff constraint115 $x406) (iff constraint116 (= gtINDEX37 gtAGG__rtDWork)) (iff constraint117 (= gtINDEX38 gtAGG__rtDWork)) (iff constraint118 $x411) (iff constraint119 (= gtINDEX40 gtAGG__rtDWork)) (iff constraint120 $x415) (iff constraint121 (= gtINDEX42 gtAGG__rtDWork)) (iff constraint122 (= gtINDEX43 gtAGG__rtDWork)) (iff constraint123 $x420) (iff constraint124 (= gtINDEX45 gtAGG__rtDWork)) (iff constraint125 $x424) (iff constraint126 (= gtINDEX47 gtAGG__rtDWork)) (iff constraint127 (= gtINDEX48 gtAGG__rtDWork)) (iff constraint128 (= gtINDEX49 gtAGG__rtDWork)) (iff constraint129 (= gtINDEX50 gtAGG__rtDWork)) (iff constraint130 $x431) (iff constraint131 (= gtINDEX52 gtAGG__rtDWork)) (iff constraint132 $x435) (iff constraint133 (= gtINDEX54 gtAGG__rtDWork)) (iff constraint134 $x439) (iff constraint135 (= gtINDEX56 gtAGG__rtDWork)) (iff constraint136 (= gtINDEX57 gtAGG__rtDWork)) (iff constraint137 (= gtINDEX58 gtAGG__rtDWork)) (iff constraint138 $x445) (iff constraint139 (= gtINDEX60 gtAGG__rtDWork)) (iff constraint140 $x449) (iff constraint141 (= gtINDEX62 gtAGG__rtDWork)) (iff constraint142 (= gtINDEX63 gtAGG__rtDWork)) (iff constraint143 $x454) (iff constraint144 (= gtINDEX65 gtAGG__rtDWork)) (iff constraint145 $x458) (iff constraint146 (= gtINDEX67 gtAGG__rtDWork)) (iff constraint147 $x462) (iff constraint148 (= gtINDEX69 gtAGG__rtDWork)) (iff constraint149 (= gtINDEX70 gtAGG__rtDWork)) (iff constraint150 $x467) (iff constraint151 (= gtINDEX72 gtAGG__rtDWork)) (iff constraint152 $x471) (iff constraint153 (= gtINDEX74 gtAGG__rtDWork)) (iff constraint154 $x475) (iff constraint155 (= gtINDEX76 gtAGG__rtDWork)) (iff constraint156 $x479) (iff constraint157 (= gtINDEX78 gtAGG__rtDWork)) (iff constraint158 (= gtINDEX79 gtAGG__rtDWork)) (iff constraint159 $x484) (iff constraint160 (= gtINDEX81 gtAGG__rtDWork)) (iff constraint161 $x488) (iff constraint162 (= gtINDEX83 gtAGG__rtDWork)) (iff constraint163 (= gtINDEX84 gtAGG__rtDWork)) (iff constraint164 $x493) (iff constraint165 (= gtINDEX86 gtAGG__rtDWork)) (iff constraint166 $x497) (iff constraint167 (= gtINDEX88 gtAGG__rtDWork)) (iff constraint168 (= gtINDEX89 gtAGG__rtDWork)) (iff constraint169 (= gtINDEX90 gtAGG__rtDWork)) (iff constraint170 (= gtINDEX91 gtAGG__rtDWork)) (iff constraint171 (= gtINDEX92 gtAGG__rtDWork)) (iff constraint172 $x505) (iff constraint173 (= gtINDEX94 gtAGG__rtDWork)) (iff constraint174 $x509) (iff constraint175 (= gtINDEX96 gtAGG__rtDWork)) (iff constraint176 $x513) (iff constraint177 (= gtINDEX98 gtAGG__rtDWork)) (iff constraint178 $x517)))
(and $x876 $x877))))))))))))))))))))))))))))))))))))))))))))))))))))))))))))))))))))))))))))))))))))))))))))))))))))))))))))))
)
